c File: flat150_3_0.col
c
c SOURCE: Joseph Culberson (joe@cs.ualberta.ca)
c DESCRIPTION: Quasi-random coloring problem
c              generated with flatness = 0
c                             probability = 0.048
c                             known coloring = 3
c                             random seed = 1075
c              Creation Date:  Wed Feb 24 10:37:44 1999
c Maximum degree = 8 Minimum degree = 1
c COLOR VERIFICATION: Using the permuted order
c under simple greedy yields the specified
c coloring number
c Color = 3 specified partitions = 3
c p edge 150 360
c cnf created by edge2cnf
p cnf 450 1680
-1 -2 0
-1 -3 0
-2 -3 0
1 2 3 0
-4 -5 0
-4 -6 0
-5 -6 0
4 5 6 0
-7 -8 0
-7 -9 0
-8 -9 0
7 8 9 0
-10 -11 0
-10 -12 0
-11 -12 0
10 11 12 0
-13 -14 0
-13 -15 0
-14 -15 0
13 14 15 0
-16 -17 0
-16 -18 0
-17 -18 0
16 17 18 0
-19 -20 0
-19 -21 0
-20 -21 0
19 20 21 0
-22 -23 0
-22 -24 0
-23 -24 0
22 23 24 0
-25 -26 0
-25 -27 0
-26 -27 0
25 26 27 0
-28 -29 0
-28 -30 0
-29 -30 0
28 29 30 0
-31 -32 0
-31 -33 0
-32 -33 0
31 32 33 0
-34 -35 0
-34 -36 0
-35 -36 0
34 35 36 0
-37 -38 0
-37 -39 0
-38 -39 0
37 38 39 0
-40 -41 0
-40 -42 0
-41 -42 0
40 41 42 0
-43 -44 0
-43 -45 0
-44 -45 0
43 44 45 0
-46 -47 0
-46 -48 0
-47 -48 0
46 47 48 0
-49 -50 0
-49 -51 0
-50 -51 0
49 50 51 0
-52 -53 0
-52 -54 0
-53 -54 0
52 53 54 0
-55 -56 0
-55 -57 0
-56 -57 0
55 56 57 0
-58 -59 0
-58 -60 0
-59 -60 0
58 59 60 0
-61 -62 0
-61 -63 0
-62 -63 0
61 62 63 0
-64 -65 0
-64 -66 0
-65 -66 0
64 65 66 0
-67 -68 0
-67 -69 0
-68 -69 0
67 68 69 0
-70 -71 0
-70 -72 0
-71 -72 0
70 71 72 0
-73 -74 0
-73 -75 0
-74 -75 0
73 74 75 0
-76 -77 0
-76 -78 0
-77 -78 0
76 77 78 0
-79 -80 0
-79 -81 0
-80 -81 0
79 80 81 0
-82 -83 0
-82 -84 0
-83 -84 0
82 83 84 0
-85 -86 0
-85 -87 0
-86 -87 0
85 86 87 0
-88 -89 0
-88 -90 0
-89 -90 0
88 89 90 0
-91 -92 0
-91 -93 0
-92 -93 0
91 92 93 0
-94 -95 0
-94 -96 0
-95 -96 0
94 95 96 0
-97 -98 0
-97 -99 0
-98 -99 0
97 98 99 0
-100 -101 0
-100 -102 0
-101 -102 0
100 101 102 0
-103 -104 0
-103 -105 0
-104 -105 0
103 104 105 0
-106 -107 0
-106 -108 0
-107 -108 0
106 107 108 0
-109 -110 0
-109 -111 0
-110 -111 0
109 110 111 0
-112 -113 0
-112 -114 0
-113 -114 0
112 113 114 0
-115 -116 0
-115 -117 0
-116 -117 0
115 116 117 0
-118 -119 0
-118 -120 0
-119 -120 0
118 119 120 0
-121 -122 0
-121 -123 0
-122 -123 0
121 122 123 0
-124 -125 0
-124 -126 0
-125 -126 0
124 125 126 0
-127 -128 0
-127 -129 0
-128 -129 0
127 128 129 0
-130 -131 0
-130 -132 0
-131 -132 0
130 131 132 0
-133 -134 0
-133 -135 0
-134 -135 0
133 134 135 0
-136 -137 0
-136 -138 0
-137 -138 0
136 137 138 0
-139 -140 0
-139 -141 0
-140 -141 0
139 140 141 0
-142 -143 0
-142 -144 0
-143 -144 0
142 143 144 0
-145 -146 0
-145 -147 0
-146 -147 0
145 146 147 0
-148 -149 0
-148 -150 0
-149 -150 0
148 149 150 0
-151 -152 0
-151 -153 0
-152 -153 0
151 152 153 0
-154 -155 0
-154 -156 0
-155 -156 0
154 155 156 0
-157 -158 0
-157 -159 0
-158 -159 0
157 158 159 0
-160 -161 0
-160 -162 0
-161 -162 0
160 161 162 0
-163 -164 0
-163 -165 0
-164 -165 0
163 164 165 0
-166 -167 0
-166 -168 0
-167 -168 0
166 167 168 0
-169 -170 0
-169 -171 0
-170 -171 0
169 170 171 0
-172 -173 0
-172 -174 0
-173 -174 0
172 173 174 0
-175 -176 0
-175 -177 0
-176 -177 0
175 176 177 0
-178 -179 0
-178 -180 0
-179 -180 0
178 179 180 0
-181 -182 0
-181 -183 0
-182 -183 0
181 182 183 0
-184 -185 0
-184 -186 0
-185 -186 0
184 185 186 0
-187 -188 0
-187 -189 0
-188 -189 0
187 188 189 0
-190 -191 0
-190 -192 0
-191 -192 0
190 191 192 0
-193 -194 0
-193 -195 0
-194 -195 0
193 194 195 0
-196 -197 0
-196 -198 0
-197 -198 0
196 197 198 0
-199 -200 0
-199 -201 0
-200 -201 0
199 200 201 0
-202 -203 0
-202 -204 0
-203 -204 0
202 203 204 0
-205 -206 0
-205 -207 0
-206 -207 0
205 206 207 0
-208 -209 0
-208 -210 0
-209 -210 0
208 209 210 0
-211 -212 0
-211 -213 0
-212 -213 0
211 212 213 0
-214 -215 0
-214 -216 0
-215 -216 0
214 215 216 0
-217 -218 0
-217 -219 0
-218 -219 0
217 218 219 0
-220 -221 0
-220 -222 0
-221 -222 0
220 221 222 0
-223 -224 0
-223 -225 0
-224 -225 0
223 224 225 0
-226 -227 0
-226 -228 0
-227 -228 0
226 227 228 0
-229 -230 0
-229 -231 0
-230 -231 0
229 230 231 0
-232 -233 0
-232 -234 0
-233 -234 0
232 233 234 0
-235 -236 0
-235 -237 0
-236 -237 0
235 236 237 0
-238 -239 0
-238 -240 0
-239 -240 0
238 239 240 0
-241 -242 0
-241 -243 0
-242 -243 0
241 242 243 0
-244 -245 0
-244 -246 0
-245 -246 0
244 245 246 0
-247 -248 0
-247 -249 0
-248 -249 0
247 248 249 0
-250 -251 0
-250 -252 0
-251 -252 0
250 251 252 0
-253 -254 0
-253 -255 0
-254 -255 0
253 254 255 0
-256 -257 0
-256 -258 0
-257 -258 0
256 257 258 0
-259 -260 0
-259 -261 0
-260 -261 0
259 260 261 0
-262 -263 0
-262 -264 0
-263 -264 0
262 263 264 0
-265 -266 0
-265 -267 0
-266 -267 0
265 266 267 0
-268 -269 0
-268 -270 0
-269 -270 0
268 269 270 0
-271 -272 0
-271 -273 0
-272 -273 0
271 272 273 0
-274 -275 0
-274 -276 0
-275 -276 0
274 275 276 0
-277 -278 0
-277 -279 0
-278 -279 0
277 278 279 0
-280 -281 0
-280 -282 0
-281 -282 0
280 281 282 0
-283 -284 0
-283 -285 0
-284 -285 0
283 284 285 0
-286 -287 0
-286 -288 0
-287 -288 0
286 287 288 0
-289 -290 0
-289 -291 0
-290 -291 0
289 290 291 0
-292 -293 0
-292 -294 0
-293 -294 0
292 293 294 0
-295 -296 0
-295 -297 0
-296 -297 0
295 296 297 0
-298 -299 0
-298 -300 0
-299 -300 0
298 299 300 0
-301 -302 0
-301 -303 0
-302 -303 0
301 302 303 0
-304 -305 0
-304 -306 0
-305 -306 0
304 305 306 0
-307 -308 0
-307 -309 0
-308 -309 0
307 308 309 0
-310 -311 0
-310 -312 0
-311 -312 0
310 311 312 0
-313 -314 0
-313 -315 0
-314 -315 0
313 314 315 0
-316 -317 0
-316 -318 0
-317 -318 0
316 317 318 0
-319 -320 0
-319 -321 0
-320 -321 0
319 320 321 0
-322 -323 0
-322 -324 0
-323 -324 0
322 323 324 0
-325 -326 0
-325 -327 0
-326 -327 0
325 326 327 0
-328 -329 0
-328 -330 0
-329 -330 0
328 329 330 0
-331 -332 0
-331 -333 0
-332 -333 0
331 332 333 0
-334 -335 0
-334 -336 0
-335 -336 0
334 335 336 0
-337 -338 0
-337 -339 0
-338 -339 0
337 338 339 0
-340 -341 0
-340 -342 0
-341 -342 0
340 341 342 0
-343 -344 0
-343 -345 0
-344 -345 0
343 344 345 0
-346 -347 0
-346 -348 0
-347 -348 0
346 347 348 0
-349 -350 0
-349 -351 0
-350 -351 0
349 350 351 0
-352 -353 0
-352 -354 0
-353 -354 0
352 353 354 0
-355 -356 0
-355 -357 0
-356 -357 0
355 356 357 0
-358 -359 0
-358 -360 0
-359 -360 0
358 359 360 0
-361 -362 0
-361 -363 0
-362 -363 0
361 362 363 0
-364 -365 0
-364 -366 0
-365 -366 0
364 365 366 0
-367 -368 0
-367 -369 0
-368 -369 0
367 368 369 0
-370 -371 0
-370 -372 0
-371 -372 0
370 371 372 0
-373 -374 0
-373 -375 0
-374 -375 0
373 374 375 0
-376 -377 0
-376 -378 0
-377 -378 0
376 377 378 0
-379 -380 0
-379 -381 0
-380 -381 0
379 380 381 0
-382 -383 0
-382 -384 0
-383 -384 0
382 383 384 0
-385 -386 0
-385 -387 0
-386 -387 0
385 386 387 0
-388 -389 0
-388 -390 0
-389 -390 0
388 389 390 0
-391 -392 0
-391 -393 0
-392 -393 0
391 392 393 0
-394 -395 0
-394 -396 0
-395 -396 0
394 395 396 0
-397 -398 0
-397 -399 0
-398 -399 0
397 398 399 0
-400 -401 0
-400 -402 0
-401 -402 0
400 401 402 0
-403 -404 0
-403 -405 0
-404 -405 0
403 404 405 0
-406 -407 0
-406 -408 0
-407 -408 0
406 407 408 0
-409 -410 0
-409 -411 0
-410 -411 0
409 410 411 0
-412 -413 0
-412 -414 0
-413 -414 0
412 413 414 0
-415 -416 0
-415 -417 0
-416 -417 0
415 416 417 0
-418 -419 0
-418 -420 0
-419 -420 0
418 419 420 0
-421 -422 0
-421 -423 0
-422 -423 0
421 422 423 0
-424 -425 0
-424 -426 0
-425 -426 0
424 425 426 0
-427 -428 0
-427 -429 0
-428 -429 0
427 428 429 0
-430 -431 0
-430 -432 0
-431 -432 0
430 431 432 0
-433 -434 0
-433 -435 0
-434 -435 0
433 434 435 0
-436 -437 0
-436 -438 0
-437 -438 0
436 437 438 0
-439 -440 0
-439 -441 0
-440 -441 0
439 440 441 0
-442 -443 0
-442 -444 0
-443 -444 0
442 443 444 0
-445 -446 0
-445 -447 0
-446 -447 0
445 446 447 0
-448 -449 0
-448 -450 0
-449 -450 0
448 449 450 0
-79 -1 0
-80 -2 0
-81 -3 0
-106 -1 0
-107 -2 0
-108 -3 0
-142 -1 0
-143 -2 0
-144 -3 0
-220 -1 0
-221 -2 0
-222 -3 0
-418 -1 0
-419 -2 0
-420 -3 0
-439 -1 0
-440 -2 0
-441 -3 0
-142 -4 0
-143 -5 0
-144 -6 0
-184 -4 0
-185 -5 0
-186 -6 0
-196 -4 0
-197 -5 0
-198 -6 0
-328 -4 0
-329 -5 0
-330 -6 0
-412 -4 0
-413 -5 0
-414 -6 0
-181 -7 0
-182 -8 0
-183 -9 0
-226 -7 0
-227 -8 0
-228 -9 0
-361 -7 0
-362 -8 0
-363 -9 0
-25 -10 0
-26 -11 0
-27 -12 0
-103 -10 0
-104 -11 0
-105 -12 0
-280 -10 0
-281 -11 0
-282 -12 0
-406 -10 0
-407 -11 0
-408 -12 0
-421 -10 0
-422 -11 0
-423 -12 0
-22 -13 0
-23 -14 0
-24 -15 0
-67 -13 0
-68 -14 0
-69 -15 0
-163 -13 0
-164 -14 0
-165 -15 0
-262 -13 0
-263 -14 0
-264 -15 0
-319 -13 0
-320 -14 0
-321 -15 0
-340 -13 0
-341 -14 0
-342 -15 0
-445 -13 0
-446 -14 0
-447 -15 0
-220 -16 0
-221 -17 0
-222 -18 0
-286 -16 0
-287 -17 0
-288 -18 0
-403 -16 0
-404 -17 0
-405 -18 0
-40 -19 0
-41 -20 0
-42 -21 0
-55 -19 0
-56 -20 0
-57 -21 0
-85 -19 0
-86 -20 0
-87 -21 0
-115 -19 0
-116 -20 0
-117 -21 0
-184 -19 0
-185 -20 0
-186 -21 0
-208 -19 0
-209 -20 0
-210 -21 0
-388 -19 0
-389 -20 0
-390 -21 0
-415 -19 0
-416 -20 0
-417 -21 0
-106 -22 0
-107 -23 0
-108 -24 0
-148 -22 0
-149 -23 0
-150 -24 0
-157 -22 0
-158 -23 0
-159 -24 0
-223 -22 0
-224 -23 0
-225 -24 0
-250 -22 0
-251 -23 0
-252 -24 0
-316 -22 0
-317 -23 0
-318 -24 0
-382 -22 0
-383 -23 0
-384 -24 0
-289 -25 0
-290 -26 0
-291 -27 0
-316 -25 0
-317 -26 0
-318 -27 0
-325 -25 0
-326 -26 0
-327 -27 0
-406 -25 0
-407 -26 0
-408 -27 0
-430 -25 0
-431 -26 0
-432 -27 0
-439 -25 0
-440 -26 0
-441 -27 0
-64 -28 0
-65 -29 0
-66 -30 0
-91 -28 0
-92 -29 0
-93 -30 0
-106 -28 0
-107 -29 0
-108 -30 0
-208 -28 0
-209 -29 0
-210 -30 0
-376 -28 0
-377 -29 0
-378 -30 0
-112 -31 0
-113 -32 0
-114 -33 0
-220 -31 0
-221 -32 0
-222 -33 0
-364 -31 0
-365 -32 0
-366 -33 0
-376 -31 0
-377 -32 0
-378 -33 0
-88 -34 0
-89 -35 0
-90 -36 0
-136 -34 0
-137 -35 0
-138 -36 0
-154 -34 0
-155 -35 0
-156 -36 0
-169 -34 0
-170 -35 0
-171 -36 0
-49 -37 0
-50 -38 0
-51 -39 0
-85 -37 0
-86 -38 0
-87 -39 0
-262 -37 0
-263 -38 0
-264 -39 0
-301 -37 0
-302 -38 0
-303 -39 0
-319 -37 0
-320 -38 0
-321 -39 0
-406 -37 0
-407 -38 0
-408 -39 0
-139 -40 0
-140 -41 0
-141 -42 0
-178 -40 0
-179 -41 0
-180 -42 0
-199 -40 0
-200 -41 0
-201 -42 0
-208 -40 0
-209 -41 0
-210 -42 0
-235 -40 0
-236 -41 0
-237 -42 0
-46 -43 0
-47 -44 0
-48 -45 0
-313 -43 0
-314 -44 0
-315 -45 0
-415 -43 0
-416 -44 0
-417 -45 0
-67 -46 0
-68 -47 0
-69 -48 0
-226 -46 0
-227 -47 0
-228 -48 0
-295 -46 0
-296 -47 0
-297 -48 0
-325 -46 0
-326 -47 0
-327 -48 0
-367 -46 0
-368 -47 0
-369 -48 0
-373 -46 0
-374 -47 0
-375 -48 0
-421 -46 0
-422 -47 0
-423 -48 0
-97 -49 0
-98 -50 0
-99 -51 0
-211 -49 0
-212 -50 0
-213 -51 0
-259 -49 0
-260 -50 0
-261 -51 0
-436 -49 0
-437 -50 0
-438 -51 0
-88 -52 0
-89 -53 0
-90 -54 0
-175 -52 0
-176 -53 0
-177 -54 0
-181 -52 0
-182 -53 0
-183 -54 0
-226 -52 0
-227 -53 0
-228 -54 0
-229 -52 0
-230 -53 0
-231 -54 0
-277 -52 0
-278 -53 0
-279 -54 0
-115 -55 0
-116 -56 0
-117 -57 0
-283 -55 0
-284 -56 0
-285 -57 0
-376 -55 0
-377 -56 0
-378 -57 0
-403 -55 0
-404 -56 0
-405 -57 0
-409 -55 0
-410 -56 0
-411 -57 0
-424 -55 0
-425 -56 0
-426 -57 0
-82 -58 0
-83 -59 0
-84 -60 0
-175 -58 0
-176 -59 0
-177 -60 0
-205 -58 0
-206 -59 0
-207 -60 0
-226 -58 0
-227 -59 0
-228 -60 0
-94 -61 0
-95 -62 0
-96 -63 0
-235 -61 0
-236 -62 0
-237 -63 0
-292 -61 0
-293 -62 0
-294 -63 0
-307 -61 0
-308 -62 0
-309 -63 0
-391 -61 0
-392 -62 0
-393 -63 0
-85 -64 0
-86 -65 0
-87 -66 0
-136 -64 0
-137 -65 0
-138 -66 0
-223 -64 0
-224 -65 0
-225 -66 0
-238 -64 0
-239 -65 0
-240 -66 0
-271 -64 0
-272 -65 0
-273 -66 0
-322 -64 0
-323 -65 0
-324 -66 0
-340 -64 0
-341 -65 0
-342 -66 0
-163 -67 0
-164 -68 0
-165 -69 0
-184 -67 0
-185 -68 0
-186 -69 0
-220 -67 0
-221 -68 0
-222 -69 0
-232 -67 0
-233 -68 0
-234 -69 0
-142 -70 0
-143 -71 0
-144 -72 0
-292 -70 0
-293 -71 0
-294 -72 0
-334 -70 0
-335 -71 0
-336 -72 0
-349 -70 0
-350 -71 0
-351 -72 0
-355 -70 0
-356 -71 0
-357 -72 0
-385 -70 0
-386 -71 0
-387 -72 0
-439 -70 0
-440 -71 0
-441 -72 0
-106 -73 0
-107 -74 0
-108 -75 0
-163 -73 0
-164 -74 0
-165 -75 0
-175 -73 0
-176 -74 0
-177 -75 0
-262 -73 0
-263 -74 0
-264 -75 0
-340 -73 0
-341 -74 0
-342 -75 0
-388 -73 0
-389 -74 0
-390 -75 0
-124 -76 0
-125 -77 0
-126 -78 0
-184 -76 0
-185 -77 0
-186 -78 0
-268 -76 0
-269 -77 0
-270 -78 0
-286 -76 0
-287 -77 0
-288 -78 0
-352 -76 0
-353 -77 0
-354 -78 0
-412 -76 0
-413 -77 0
-414 -78 0
-313 -79 0
-314 -80 0
-315 -81 0
-88 -82 0
-89 -83 0
-90 -84 0
-121 -82 0
-122 -83 0
-123 -84 0
-274 -82 0
-275 -83 0
-276 -84 0
-280 -82 0
-281 -83 0
-282 -84 0
-298 -82 0
-299 -83 0
-300 -84 0
-112 -85 0
-113 -86 0
-114 -87 0
-226 -85 0
-227 -86 0
-228 -87 0
-112 -88 0
-113 -89 0
-114 -90 0
-274 -88 0
-275 -89 0
-276 -90 0
-295 -88 0
-296 -89 0
-297 -90 0
-301 -88 0
-302 -89 0
-303 -90 0
-115 -91 0
-116 -92 0
-117 -93 0
-172 -91 0
-173 -92 0
-174 -93 0
-232 -91 0
-233 -92 0
-234 -93 0
-346 -91 0
-347 -92 0
-348 -93 0
-376 -91 0
-377 -92 0
-378 -93 0
-400 -91 0
-401 -92 0
-402 -93 0
-148 -94 0
-149 -95 0
-150 -96 0
-202 -94 0
-203 -95 0
-204 -96 0
-235 -94 0
-236 -95 0
-237 -96 0
-370 -94 0
-371 -95 0
-372 -96 0
-103 -97 0
-104 -98 0
-105 -99 0
-169 -97 0
-170 -98 0
-171 -99 0
-352 -97 0
-353 -98 0
-354 -99 0
-403 -97 0
-404 -98 0
-405 -99 0
-409 -97 0
-410 -98 0
-411 -99 0
-412 -97 0
-413 -98 0
-414 -99 0
-418 -97 0
-419 -98 0
-420 -99 0
-118 -100 0
-119 -101 0
-120 -102 0
-265 -100 0
-266 -101 0
-267 -102 0
-355 -100 0
-356 -101 0
-357 -102 0
-211 -106 0
-212 -107 0
-213 -108 0
-289 -106 0
-290 -107 0
-291 -108 0
-331 -106 0
-332 -107 0
-333 -108 0
-373 -106 0
-374 -107 0
-375 -108 0
-205 -109 0
-206 -110 0
-207 -111 0
-229 -109 0
-230 -110 0
-231 -111 0
-244 -109 0
-245 -110 0
-246 -111 0
-277 -109 0
-278 -110 0
-279 -111 0
-337 -109 0
-338 -110 0
-339 -111 0
-349 -109 0
-350 -110 0
-351 -111 0
-304 -112 0
-305 -113 0
-306 -114 0
-361 -112 0
-362 -113 0
-363 -114 0
-370 -112 0
-371 -113 0
-372 -114 0
-175 -115 0
-176 -116 0
-177 -117 0
-190 -115 0
-191 -116 0
-192 -117 0
-400 -115 0
-401 -116 0
-402 -117 0
-442 -115 0
-443 -116 0
-444 -117 0
-448 -115 0
-449 -116 0
-450 -117 0
-295 -118 0
-296 -119 0
-297 -120 0
-331 -118 0
-332 -119 0
-333 -120 0
-418 -118 0
-419 -119 0
-420 -120 0
-325 -121 0
-326 -122 0
-327 -123 0
-349 -121 0
-350 -122 0
-351 -123 0
-388 -121 0
-389 -122 0
-390 -123 0
-187 -124 0
-188 -125 0
-189 -126 0
-220 -124 0
-221 -125 0
-222 -126 0
-319 -124 0
-320 -125 0
-321 -126 0
-367 -124 0
-368 -125 0
-369 -126 0
-376 -124 0
-377 -125 0
-378 -126 0
-382 -124 0
-383 -125 0
-384 -126 0
-175 -127 0
-176 -128 0
-177 -129 0
-310 -127 0
-311 -128 0
-312 -129 0
-214 -130 0
-215 -131 0
-216 -132 0
-388 -130 0
-389 -131 0
-390 -132 0
-403 -130 0
-404 -131 0
-405 -132 0
-142 -133 0
-143 -134 0
-144 -135 0
-181 -133 0
-182 -134 0
-183 -135 0
-196 -133 0
-197 -134 0
-198 -135 0
-256 -133 0
-257 -134 0
-258 -135 0
-286 -133 0
-287 -134 0
-288 -135 0
-211 -136 0
-212 -137 0
-213 -138 0
-280 -136 0
-281 -137 0
-282 -138 0
-145 -139 0
-146 -140 0
-147 -141 0
-187 -139 0
-188 -140 0
-189 -141 0
-163 -142 0
-164 -143 0
-165 -144 0
-184 -142 0
-185 -143 0
-186 -144 0
-388 -142 0
-389 -143 0
-390 -144 0
-421 -142 0
-422 -143 0
-423 -144 0
-148 -145 0
-149 -146 0
-150 -147 0
-151 -145 0
-152 -146 0
-153 -147 0
-238 -145 0
-239 -146 0
-240 -147 0
-277 -145 0
-278 -146 0
-279 -147 0
-298 -145 0
-299 -146 0
-300 -147 0
-256 -148 0
-257 -149 0
-258 -150 0
-289 -148 0
-290 -149 0
-291 -150 0
-337 -148 0
-338 -149 0
-339 -150 0
-361 -151 0
-362 -152 0
-363 -153 0
-388 -151 0
-389 -152 0
-390 -153 0
-430 -151 0
-431 -152 0
-432 -153 0
-172 -154 0
-173 -155 0
-174 -156 0
-244 -154 0
-245 -155 0
-246 -156 0
-262 -154 0
-263 -155 0
-264 -156 0
-229 -157 0
-230 -158 0
-231 -159 0
-256 -157 0
-257 -158 0
-258 -159 0
-193 -160 0
-194 -161 0
-195 -162 0
-253 -163 0
-254 -164 0
-255 -165 0
-280 -163 0
-281 -164 0
-282 -165 0
-373 -163 0
-374 -164 0
-375 -165 0
-385 -163 0
-386 -164 0
-387 -165 0
-202 -166 0
-203 -167 0
-204 -168 0
-256 -166 0
-257 -167 0
-258 -168 0
-445 -166 0
-446 -167 0
-447 -168 0
-208 -169 0
-209 -170 0
-210 -171 0
-223 -169 0
-224 -170 0
-225 -171 0
-244 -169 0
-245 -170 0
-246 -171 0
-250 -175 0
-251 -176 0
-252 -177 0
-274 -175 0
-275 -176 0
-276 -177 0
-184 -178 0
-185 -179 0
-186 -180 0
-262 -178 0
-263 -179 0
-264 -180 0
-391 -178 0
-392 -179 0
-393 -180 0
-379 -181 0
-380 -182 0
-381 -183 0
-409 -181 0
-410 -182 0
-411 -183 0
-199 -187 0
-200 -188 0
-201 -189 0
-208 -187 0
-209 -188 0
-210 -189 0
-310 -187 0
-311 -188 0
-312 -189 0
-397 -187 0
-398 -188 0
-399 -189 0
-280 -190 0
-281 -191 0
-282 -192 0
-349 -190 0
-350 -191 0
-351 -192 0
-391 -190 0
-392 -191 0
-393 -192 0
-265 -196 0
-266 -197 0
-267 -198 0
-373 -199 0
-374 -200 0
-375 -201 0
-418 -199 0
-419 -200 0
-420 -201 0
-217 -202 0
-218 -203 0
-219 -204 0
-328 -202 0
-329 -203 0
-330 -204 0
-367 -202 0
-368 -203 0
-369 -204 0
-448 -202 0
-449 -203 0
-450 -204 0
-310 -205 0
-311 -206 0
-312 -207 0
-331 -205 0
-332 -206 0
-333 -207 0
-214 -208 0
-215 -209 0
-216 -210 0
-256 -208 0
-257 -209 0
-258 -210 0
-322 -208 0
-323 -209 0
-324 -210 0
-250 -211 0
-251 -212 0
-252 -213 0
-316 -211 0
-317 -212 0
-318 -213 0
-424 -217 0
-425 -218 0
-426 -219 0
-439 -220 0
-440 -221 0
-441 -222 0
-265 -223 0
-266 -224 0
-267 -225 0
-373 -223 0
-374 -224 0
-375 -225 0
-406 -223 0
-407 -224 0
-408 -225 0
-313 -232 0
-314 -233 0
-315 -234 0
-409 -232 0
-410 -233 0
-411 -234 0
-397 -235 0
-398 -236 0
-399 -237 0
-436 -238 0
-437 -239 0
-438 -240 0
-292 -241 0
-293 -242 0
-294 -243 0
-394 -244 0
-395 -245 0
-396 -246 0
-412 -244 0
-413 -245 0
-414 -246 0
-259 -247 0
-260 -248 0
-261 -249 0
-325 -247 0
-326 -248 0
-327 -249 0
-418 -247 0
-419 -248 0
-420 -249 0
-301 -250 0
-302 -251 0
-303 -252 0
-418 -250 0
-419 -251 0
-420 -252 0
-442 -250 0
-443 -251 0
-444 -252 0
-262 -253 0
-263 -254 0
-264 -255 0
-346 -253 0
-347 -254 0
-348 -255 0
-379 -253 0
-380 -254 0
-381 -255 0
-394 -253 0
-395 -254 0
-396 -255 0
-427 -253 0
-428 -254 0
-429 -255 0
-292 -256 0
-293 -257 0
-294 -258 0
-346 -256 0
-347 -257 0
-348 -258 0
-436 -256 0
-437 -257 0
-438 -258 0
-283 -259 0
-284 -260 0
-285 -261 0
-364 -259 0
-365 -260 0
-366 -261 0
-343 -265 0
-344 -266 0
-345 -267 0
-289 -268 0
-290 -269 0
-291 -270 0
-298 -268 0
-299 -269 0
-300 -270 0
-307 -268 0
-308 -269 0
-309 -270 0
-334 -271 0
-335 -272 0
-336 -273 0
-364 -271 0
-365 -272 0
-366 -273 0
-289 -274 0
-290 -275 0
-291 -276 0
-352 -277 0
-353 -278 0
-354 -279 0
-397 -277 0
-398 -278 0
-399 -279 0
-400 -277 0
-401 -278 0
-402 -279 0
-325 -280 0
-326 -281 0
-327 -282 0
-325 -283 0
-326 -284 0
-327 -285 0
-415 -283 0
-416 -284 0
-417 -285 0
-382 -286 0
-383 -287 0
-384 -288 0
-367 -289 0
-368 -290 0
-369 -291 0
-415 -292 0
-416 -293 0
-417 -294 0
-298 -295 0
-299 -296 0
-300 -297 0
-301 -295 0
-302 -296 0
-303 -297 0
-355 -295 0
-356 -296 0
-357 -297 0
-358 -295 0
-359 -296 0
-360 -297 0
-382 -295 0
-383 -296 0
-384 -297 0
-304 -298 0
-305 -299 0
-306 -300 0
-316 -301 0
-317 -302 0
-318 -303 0
-319 -301 0
-320 -302 0
-321 -303 0
-370 -301 0
-371 -302 0
-372 -303 0
-394 -301 0
-395 -302 0
-396 -303 0
-367 -307 0
-368 -308 0
-369 -309 0
-370 -307 0
-371 -308 0
-372 -309 0
-334 -310 0
-335 -311 0
-336 -312 0
-433 -310 0
-434 -311 0
-435 -312 0
-322 -313 0
-323 -314 0
-324 -315 0
-400 -316 0
-401 -317 0
-402 -318 0
-334 -322 0
-335 -323 0
-336 -324 0
-379 -322 0
-380 -323 0
-381 -324 0
-415 -328 0
-416 -329 0
-417 -330 0
-367 -331 0
-368 -332 0
-369 -333 0
-403 -331 0
-404 -332 0
-405 -333 0
-430 -337 0
-431 -338 0
-432 -339 0
-361 -340 0
-362 -341 0
-363 -342 0
-448 -340 0
-449 -341 0
-450 -342 0
-373 -343 0
-374 -344 0
-375 -345 0
-385 -343 0
-386 -344 0
-387 -345 0
-382 -346 0
-383 -347 0
-384 -348 0
-391 -349 0
-392 -350 0
-393 -351 0
-427 -352 0
-428 -353 0
-429 -354 0
-364 -355 0
-365 -356 0
-366 -357 0
-370 -361 0
-371 -362 0
-372 -363 0
-397 -376 0
-398 -377 0
-399 -378 0
-409 -382 0
-410 -383 0
-411 -384 0
-415 -385 0
-416 -386 0
-417 -387 0
-421 -391 0
-422 -392 0
-423 -393 0
-415 -397 0
-416 -398 0
-417 -399 0
-421 -397 0
-422 -398 0
-423 -399 0
-415 -406 0
-416 -407 0
-417 -408 0
-427 -418 0
-428 -419 0
-429 -420 0
-445 -421 0
-446 -422 0
-447 -423 0
-433 -424 0
-434 -425 0
-435 -426 0
-448 -427 0
-449 -428 0
-450 -429 0
